Minimize
 obj: 0 X_0_1
Subject To
 out_0:
  + 1 X_0_1 + 1 X_0_2 + 1 X_0_3 + 1 X_0_4 + 1 X_0_5 + 1 X_0_6 + 1 X_0_7 + 1 X_0_8
  + 1 X_0_9 + 1 X_0_10 + 1 X_0_11 + 1 X_0_12 + 1 X_0_13 + 1 X_0_14
  = 1
 in_0:
  + 1 X_1_0 + 1 X_2_0 + 1 X_3_0 + 1 X_4_0 + 1 X_5_0 + 1 X_6_0 + 1 X_7_0 + 1 X_8_0
  + 1 X_9_0 + 1 X_10_0 + 1 X_11_0 + 1 X_12_0 + 1 X_13_0 + 1 X_14_0
  = 1
 out_1:
  + 1 X_1_0 + 1 X_1_2 + 1 X_1_3 + 1 X_1_4 + 1 X_1_5 + 1 X_1_6 + 1 X_1_7 + 1 X_1_8
  + 1 X_1_9 + 1 X_1_10 + 1 X_1_11 + 1 X_1_12 + 1 X_1_13 + 1 X_1_14
  = 1
 in_1:
  + 1 X_0_1 + 1 X_2_1 + 1 X_3_1 + 1 X_4_1 + 1 X_5_1 + 1 X_6_1 + 1 X_7_1 + 1 X_8_1
  + 1 X_9_1 + 1 X_10_1 + 1 X_11_1 + 1 X_12_1 + 1 X_13_1 + 1 X_14_1
  = 1
 out_2:
  + 1 X_2_0 + 1 X_2_1 + 1 X_2_3 + 1 X_2_4 + 1 X_2_5 + 1 X_2_6 + 1 X_2_7 + 1 X_2_8
  + 1 X_2_9 + 1 X_2_10 + 1 X_2_11 + 1 X_2_12 + 1 X_2_13 + 1 X_2_14
  = 1
 in_2:
  + 1 X_0_2 + 1 X_1_2 + 1 X_3_2 + 1 X_4_2 + 1 X_5_2 + 1 X_6_2 + 1 X_7_2 + 1 X_8_2
  + 1 X_9_2 + 1 X_10_2 + 1 X_11_2 + 1 X_12_2 + 1 X_13_2 + 1 X_14_2
  = 1
 out_3:
  + 1 X_3_0 + 1 X_3_1 + 1 X_3_2 + 1 X_3_4 + 1 X_3_5 + 1 X_3_6 + 1 X_3_7 + 1 X_3_8
  + 1 X_3_9 + 1 X_3_10 + 1 X_3_11 + 1 X_3_12 + 1 X_3_13 + 1 X_3_14
  = 1
 in_3:
  + 1 X_0_3 + 1 X_1_3 + 1 X_2_3 + 1 X_4_3 + 1 X_5_3 + 1 X_6_3 + 1 X_7_3 + 1 X_8_3
  + 1 X_9_3 + 1 X_10_3 + 1 X_11_3 + 1 X_12_3 + 1 X_13_3 + 1 X_14_3
  = 1
 out_4:
  + 1 X_4_0 + 1 X_4_1 + 1 X_4_2 + 1 X_4_3 + 1 X_4_5 + 1 X_4_6 + 1 X_4_7 + 1 X_4_8
  + 1 X_4_9 + 1 X_4_10 + 1 X_4_11 + 1 X_4_12 + 1 X_4_13 + 1 X_4_14
  = 1
 in_4:
  + 1 X_0_4 + 1 X_1_4 + 1 X_2_4 + 1 X_3_4 + 1 X_5_4 + 1 X_6_4 + 1 X_7_4 + 1 X_8_4
  + 1 X_9_4 + 1 X_10_4 + 1 X_11_4 + 1 X_12_4 + 1 X_13_4 + 1 X_14_4
  = 1
 out_5:
  + 1 X_5_0 + 1 X_5_1 + 1 X_5_2 + 1 X_5_3 + 1 X_5_4 + 1 X_5_6 + 1 X_5_7 + 1 X_5_8
  + 1 X_5_9 + 1 X_5_10 + 1 X_5_11 + 1 X_5_12 + 1 X_5_13 + 1 X_5_14
  = 1
 in_5:
  + 1 X_0_5 + 1 X_1_5 + 1 X_2_5 + 1 X_3_5 + 1 X_4_5 + 1 X_6_5 + 1 X_7_5 + 1 X_8_5
  + 1 X_9_5 + 1 X_10_5 + 1 X_11_5 + 1 X_12_5 + 1 X_13_5 + 1 X_14_5
  = 1
 out_6:
  + 1 X_6_0 + 1 X_6_1 + 1 X_6_2 + 1 X_6_3 + 1 X_6_4 + 1 X_6_5 + 1 X_6_7 + 1 X_6_8
  + 1 X_6_9 + 1 X_6_10 + 1 X_6_11 + 1 X_6_12 + 1 X_6_13 + 1 X_6_14
  = 1
 in_6:
  + 1 X_0_6 + 1 X_1_6 + 1 X_2_6 + 1 X_3_6 + 1 X_4_6 + 1 X_5_6 + 1 X_7_6 + 1 X_8_6
  + 1 X_9_6 + 1 X_10_6 + 1 X_11_6 + 1 X_12_6 + 1 X_13_6 + 1 X_14_6
  = 1
 out_7:
  + 1 X_7_0 + 1 X_7_1 + 1 X_7_2 + 1 X_7_3 + 1 X_7_4 + 1 X_7_5 + 1 X_7_6 + 1 X_7_8
  + 1 X_7_9 + 1 X_7_10 + 1 X_7_11 + 1 X_7_12 + 1 X_7_13 + 1 X_7_14
  = 1
 in_7:
  + 1 X_0_7 + 1 X_1_7 + 1 X_2_7 + 1 X_3_7 + 1 X_4_7 + 1 X_5_7 + 1 X_6_7 + 1 X_8_7
  + 1 X_9_7 + 1 X_10_7 + 1 X_11_7 + 1 X_12_7 + 1 X_13_7 + 1 X_14_7
  = 1
 out_8:
  + 1 X_8_0 + 1 X_8_1 + 1 X_8_2 + 1 X_8_3 + 1 X_8_4 + 1 X_8_5 + 1 X_8_6 + 1 X_8_7
  + 1 X_8_9 + 1 X_8_10 + 1 X_8_11 + 1 X_8_12 + 1 X_8_13 + 1 X_8_14
  = 1
 in_8:
  + 1 X_0_8 + 1 X_1_8 + 1 X_2_8 + 1 X_3_8 + 1 X_4_8 + 1 X_5_8 + 1 X_6_8 + 1 X_7_8
  + 1 X_9_8 + 1 X_10_8 + 1 X_11_8 + 1 X_12_8 + 1 X_13_8 + 1 X_14_8
  = 1
 out_9:
  + 1 X_9_0 + 1 X_9_1 + 1 X_9_2 + 1 X_9_3 + 1 X_9_4 + 1 X_9_5 + 1 X_9_6 + 1 X_9_7
  + 1 X_9_8 + 1 X_9_10 + 1 X_9_11 + 1 X_9_12 + 1 X_9_13 + 1 X_9_14
  = 1
 in_9:
  + 1 X_0_9 + 1 X_1_9 + 1 X_2_9 + 1 X_3_9 + 1 X_4_9 + 1 X_5_9 + 1 X_6_9 + 1 X_7_9
  + 1 X_8_9 + 1 X_10_9 + 1 X_11_9 + 1 X_12_9 + 1 X_13_9 + 1 X_14_9
  = 1
 out_10:
  + 1 X_10_0 + 1 X_10_1 + 1 X_10_2 + 1 X_10_3 + 1 X_10_4 + 1 X_10_5 + 1 X_10_6 + 1 X_10_7
  + 1 X_10_8 + 1 X_10_9 + 1 X_10_11 + 1 X_10_12 + 1 X_10_13 + 1 X_10_14
  = 1
 in_10:
  + 1 X_0_10 + 1 X_1_10 + 1 X_2_10 + 1 X_3_10 + 1 X_4_10 + 1 X_5_10 + 1 X_6_10 + 1 X_7_10
  + 1 X_8_10 + 1 X_9_10 + 1 X_11_10 + 1 X_12_10 + 1 X_13_10 + 1 X_14_10
  = 1
 out_11:
  + 1 X_11_0 + 1 X_11_1 + 1 X_11_2 + 1 X_11_3 + 1 X_11_4 + 1 X_11_5 + 1 X_11_6 + 1 X_11_7
  + 1 X_11_8 + 1 X_11_9 + 1 X_11_10 + 1 X_11_12 + 1 X_11_13 + 1 X_11_14
  = 1
 in_11:
  + 1 X_0_11 + 1 X_1_11 + 1 X_2_11 + 1 X_3_11 + 1 X_4_11 + 1 X_5_11 + 1 X_6_11 + 1 X_7_11
  + 1 X_8_11 + 1 X_9_11 + 1 X_10_11 + 1 X_12_11 + 1 X_13_11 + 1 X_14_11
  = 1
 out_12:
  + 1 X_12_0 + 1 X_12_1 + 1 X_12_2 + 1 X_12_3 + 1 X_12_4 + 1 X_12_5 + 1 X_12_6 + 1 X_12_7
  + 1 X_12_8 + 1 X_12_9 + 1 X_12_10 + 1 X_12_11 + 1 X_12_13 + 1 X_12_14
  = 1
 in_12:
  + 1 X_0_12 + 1 X_1_12 + 1 X_2_12 + 1 X_3_12 + 1 X_4_12 + 1 X_5_12 + 1 X_6_12 + 1 X_7_12
  + 1 X_8_12 + 1 X_9_12 + 1 X_10_12 + 1 X_11_12 + 1 X_13_12 + 1 X_14_12
  = 1
 out_13:
  + 1 X_13_0 + 1 X_13_1 + 1 X_13_2 + 1 X_13_3 + 1 X_13_4 + 1 X_13_5 + 1 X_13_6 + 1 X_13_7
  + 1 X_13_8 + 1 X_13_9 + 1 X_13_10 + 1 X_13_11 + 1 X_13_12 + 1 X_13_14
  = 1
 in_13:
  + 1 X_0_13 + 1 X_1_13 + 1 X_2_13 + 1 X_3_13 + 1 X_4_13 + 1 X_5_13 + 1 X_6_13 + 1 X_7_13
  + 1 X_8_13 + 1 X_9_13 + 1 X_10_13 + 1 X_11_13 + 1 X_12_13 + 1 X_14_13
  = 1
 out_14:
  + 1 X_14_0 + 1 X_14_1 + 1 X_14_2 + 1 X_14_3 + 1 X_14_4 + 1 X_14_5 + 1 X_14_6 + 1 X_14_7
  + 1 X_14_8 + 1 X_14_9 + 1 X_14_10 + 1 X_14_11 + 1 X_14_12 + 1 X_14_13
  = 1
 in_14:
  + 1 X_0_14 + 1 X_1_14 + 1 X_2_14 + 1 X_3_14 + 1 X_4_14 + 1 X_5_14 + 1 X_6_14 + 1 X_7_14
  + 1 X_8_14 + 1 X_9_14 + 1 X_10_14 + 1 X_11_14 + 1 X_12_14 + 1 X_13_14
  = 1
 mtz_1_2:
  + 1 U1 - 1 U2 + 14 X_1_2
  <= 13
 mtz_1_3:
  + 1 U1 - 1 U3 + 14 X_1_3
  <= 13
 mtz_1_4:
  + 1 U1 - 1 U4 + 14 X_1_4
  <= 13
 mtz_1_5:
  + 1 U1 - 1 U5 + 14 X_1_5
  <= 13
 mtz_1_6:
  + 1 U1 - 1 U6 + 14 X_1_6
  <= 13
 mtz_1_7:
  + 1 U1 - 1 U7 + 14 X_1_7
  <= 13
 mtz_1_8:
  + 1 U1 - 1 U8 + 14 X_1_8
  <= 13
 mtz_1_9:
  + 1 U1 - 1 U9 + 14 X_1_9
  <= 13
 mtz_1_10:
  + 1 U1 - 1 U10 + 14 X_1_10
  <= 13
 mtz_1_11:
  + 1 U1 - 1 U11 + 14 X_1_11
  <= 13
 mtz_1_12:
  + 1 U1 - 1 U12 + 14 X_1_12
  <= 13
 mtz_1_13:
  + 1 U1 - 1 U13 + 14 X_1_13
  <= 13
 mtz_1_14:
  + 1 U1 - 1 U14 + 14 X_1_14
  <= 13
 mtz_2_1:
  + 1 U2 - 1 U1 + 14 X_2_1
  <= 13
 mtz_2_3:
  + 1 U2 - 1 U3 + 14 X_2_3
  <= 13
 mtz_2_4:
  + 1 U2 - 1 U4 + 14 X_2_4
  <= 13
 mtz_2_5:
  + 1 U2 - 1 U5 + 14 X_2_5
  <= 13
 mtz_2_6:
  + 1 U2 - 1 U6 + 14 X_2_6
  <= 13
 mtz_2_7:
  + 1 U2 - 1 U7 + 14 X_2_7
  <= 13
 mtz_2_8:
  + 1 U2 - 1 U8 + 14 X_2_8
  <= 13
 mtz_2_9:
  + 1 U2 - 1 U9 + 14 X_2_9
  <= 13
 mtz_2_10:
  + 1 U2 - 1 U10 + 14 X_2_10
  <= 13
 mtz_2_11:
  + 1 U2 - 1 U11 + 14 X_2_11
  <= 13
 mtz_2_12:
  + 1 U2 - 1 U12 + 14 X_2_12
  <= 13
 mtz_2_13:
  + 1 U2 - 1 U13 + 14 X_2_13
  <= 13
 mtz_2_14:
  + 1 U2 - 1 U14 + 14 X_2_14
  <= 13
 mtz_3_1:
  + 1 U3 - 1 U1 + 14 X_3_1
  <= 13
 mtz_3_2:
  + 1 U3 - 1 U2 + 14 X_3_2
  <= 13
 mtz_3_4:
  + 1 U3 - 1 U4 + 14 X_3_4
  <= 13
 mtz_3_5:
  + 1 U3 - 1 U5 + 14 X_3_5
  <= 13
 mtz_3_6:
  + 1 U3 - 1 U6 + 14 X_3_6
  <= 13
 mtz_3_7:
  + 1 U3 - 1 U7 + 14 X_3_7
  <= 13
 mtz_3_8:
  + 1 U3 - 1 U8 + 14 X_3_8
  <= 13
 mtz_3_9:
  + 1 U3 - 1 U9 + 14 X_3_9
  <= 13
 mtz_3_10:
  + 1 U3 - 1 U10 + 14 X_3_10
  <= 13
 mtz_3_11:
  + 1 U3 - 1 U11 + 14 X_3_11
  <= 13
 mtz_3_12:
  + 1 U3 - 1 U12 + 14 X_3_12
  <= 13
 mtz_3_13:
  + 1 U3 - 1 U13 + 14 X_3_13
  <= 13
 mtz_3_14:
  + 1 U3 - 1 U14 + 14 X_3_14
  <= 13
 mtz_4_1:
  + 1 U4 - 1 U1 + 14 X_4_1
  <= 13
 mtz_4_2:
  + 1 U4 - 1 U2 + 14 X_4_2
  <= 13
 mtz_4_3:
  + 1 U4 - 1 U3 + 14 X_4_3
  <= 13
 mtz_4_5:
  + 1 U4 - 1 U5 + 14 X_4_5
  <= 13
 mtz_4_6:
  + 1 U4 - 1 U6 + 14 X_4_6
  <= 13
 mtz_4_7:
  + 1 U4 - 1 U7 + 14 X_4_7
  <= 13
 mtz_4_8:
  + 1 U4 - 1 U8 + 14 X_4_8
  <= 13
 mtz_4_9:
  + 1 U4 - 1 U9 + 14 X_4_9
  <= 13
 mtz_4_10:
  + 1 U4 - 1 U10 + 14 X_4_10
  <= 13
 mtz_4_11:
  + 1 U4 - 1 U11 + 14 X_4_11
  <= 13
 mtz_4_12:
  + 1 U4 - 1 U12 + 14 X_4_12
  <= 13
 mtz_4_13:
  + 1 U4 - 1 U13 + 14 X_4_13
  <= 13
 mtz_4_14:
  + 1 U4 - 1 U14 + 14 X_4_14
  <= 13
 mtz_5_1:
  + 1 U5 - 1 U1 + 14 X_5_1
  <= 13
 mtz_5_2:
  + 1 U5 - 1 U2 + 14 X_5_2
  <= 13
 mtz_5_3:
  + 1 U5 - 1 U3 + 14 X_5_3
  <= 13
 mtz_5_4:
  + 1 U5 - 1 U4 + 14 X_5_4
  <= 13
 mtz_5_6:
  + 1 U5 - 1 U6 + 14 X_5_6
  <= 13
 mtz_5_7:
  + 1 U5 - 1 U7 + 14 X_5_7
  <= 13
 mtz_5_8:
  + 1 U5 - 1 U8 + 14 X_5_8
  <= 13
 mtz_5_9:
  + 1 U5 - 1 U9 + 14 X_5_9
  <= 13
 mtz_5_10:
  + 1 U5 - 1 U10 + 14 X_5_10
  <= 13
 mtz_5_11:
  + 1 U5 - 1 U11 + 14 X_5_11
  <= 13
 mtz_5_12:
  + 1 U5 - 1 U12 + 14 X_5_12
  <= 13
 mtz_5_13:
  + 1 U5 - 1 U13 + 14 X_5_13
  <= 13
 mtz_5_14:
  + 1 U5 - 1 U14 + 14 X_5_14
  <= 13
 mtz_6_1:
  + 1 U6 - 1 U1 + 14 X_6_1
  <= 13
 mtz_6_2:
  + 1 U6 - 1 U2 + 14 X_6_2
  <= 13
 mtz_6_3:
  + 1 U6 - 1 U3 + 14 X_6_3
  <= 13
 mtz_6_4:
  + 1 U6 - 1 U4 + 14 X_6_4
  <= 13
 mtz_6_5:
  + 1 U6 - 1 U5 + 14 X_6_5
  <= 13
 mtz_6_7:
  + 1 U6 - 1 U7 + 14 X_6_7
  <= 13
 mtz_6_8:
  + 1 U6 - 1 U8 + 14 X_6_8
  <= 13
 mtz_6_9:
  + 1 U6 - 1 U9 + 14 X_6_9
  <= 13
 mtz_6_10:
  + 1 U6 - 1 U10 + 14 X_6_10
  <= 13
 mtz_6_11:
  + 1 U6 - 1 U11 + 14 X_6_11
  <= 13
 mtz_6_12:
  + 1 U6 - 1 U12 + 14 X_6_12
  <= 13
 mtz_6_13:
  + 1 U6 - 1 U13 + 14 X_6_13
  <= 13
 mtz_6_14:
  + 1 U6 - 1 U14 + 14 X_6_14
  <= 13
 mtz_7_1:
  + 1 U7 - 1 U1 + 14 X_7_1
  <= 13
 mtz_7_2:
  + 1 U7 - 1 U2 + 14 X_7_2
  <= 13
 mtz_7_3:
  + 1 U7 - 1 U3 + 14 X_7_3
  <= 13
 mtz_7_4:
  + 1 U7 - 1 U4 + 14 X_7_4
  <= 13
 mtz_7_5:
  + 1 U7 - 1 U5 + 14 X_7_5
  <= 13
 mtz_7_6:
  + 1 U7 - 1 U6 + 14 X_7_6
  <= 13
 mtz_7_8:
  + 1 U7 - 1 U8 + 14 X_7_8
  <= 13
 mtz_7_9:
  + 1 U7 - 1 U9 + 14 X_7_9
  <= 13
 mtz_7_10:
  + 1 U7 - 1 U10 + 14 X_7_10
  <= 13
 mtz_7_11:
  + 1 U7 - 1 U11 + 14 X_7_11
  <= 13
 mtz_7_12:
  + 1 U7 - 1 U12 + 14 X_7_12
  <= 13
 mtz_7_13:
  + 1 U7 - 1 U13 + 14 X_7_13
  <= 13
 mtz_7_14:
  + 1 U7 - 1 U14 + 14 X_7_14
  <= 13
 mtz_8_1:
  + 1 U8 - 1 U1 + 14 X_8_1
  <= 13
 mtz_8_2:
  + 1 U8 - 1 U2 + 14 X_8_2
  <= 13
 mtz_8_3:
  + 1 U8 - 1 U3 + 14 X_8_3
  <= 13
 mtz_8_4:
  + 1 U8 - 1 U4 + 14 X_8_4
  <= 13
 mtz_8_5:
  + 1 U8 - 1 U5 + 14 X_8_5
  <= 13
 mtz_8_6:
  + 1 U8 - 1 U6 + 14 X_8_6
  <= 13
 mtz_8_7:
  + 1 U8 - 1 U7 + 14 X_8_7
  <= 13
 mtz_8_9:
  + 1 U8 - 1 U9 + 14 X_8_9
  <= 13
 mtz_8_10:
  + 1 U8 - 1 U10 + 14 X_8_10
  <= 13
 mtz_8_11:
  + 1 U8 - 1 U11 + 14 X_8_11
  <= 13
 mtz_8_12:
  + 1 U8 - 1 U12 + 14 X_8_12
  <= 13
 mtz_8_13:
  + 1 U8 - 1 U13 + 14 X_8_13
  <= 13
 mtz_8_14:
  + 1 U8 - 1 U14 + 14 X_8_14
  <= 13
 mtz_9_1:
  + 1 U9 - 1 U1 + 14 X_9_1
  <= 13
 mtz_9_2:
  + 1 U9 - 1 U2 + 14 X_9_2
  <= 13
 mtz_9_3:
  + 1 U9 - 1 U3 + 14 X_9_3
  <= 13
 mtz_9_4:
  + 1 U9 - 1 U4 + 14 X_9_4
  <= 13
 mtz_9_5:
  + 1 U9 - 1 U5 + 14 X_9_5
  <= 13
 mtz_9_6:
  + 1 U9 - 1 U6 + 14 X_9_6
  <= 13
 mtz_9_7:
  + 1 U9 - 1 U7 + 14 X_9_7
  <= 13
 mtz_9_8:
  + 1 U9 - 1 U8 + 14 X_9_8
  <= 13
 mtz_9_10:
  + 1 U9 - 1 U10 + 14 X_9_10
  <= 13
 mtz_9_11:
  + 1 U9 - 1 U11 + 14 X_9_11
  <= 13
 mtz_9_12:
  + 1 U9 - 1 U12 + 14 X_9_12
  <= 13
 mtz_9_13:
  + 1 U9 - 1 U13 + 14 X_9_13
  <= 13
 mtz_9_14:
  + 1 U9 - 1 U14 + 14 X_9_14
  <= 13
 mtz_10_1:
  + 1 U10 - 1 U1 + 14 X_10_1
  <= 13
 mtz_10_2:
  + 1 U10 - 1 U2 + 14 X_10_2
  <= 13
 mtz_10_3:
  + 1 U10 - 1 U3 + 14 X_10_3
  <= 13
 mtz_10_4:
  + 1 U10 - 1 U4 + 14 X_10_4
  <= 13
 mtz_10_5:
  + 1 U10 - 1 U5 + 14 X_10_5
  <= 13
 mtz_10_6:
  + 1 U10 - 1 U6 + 14 X_10_6
  <= 13
 mtz_10_7:
  + 1 U10 - 1 U7 + 14 X_10_7
  <= 13
 mtz_10_8:
  + 1 U10 - 1 U8 + 14 X_10_8
  <= 13
 mtz_10_9:
  + 1 U10 - 1 U9 + 14 X_10_9
  <= 13
 mtz_10_11:
  + 1 U10 - 1 U11 + 14 X_10_11
  <= 13
 mtz_10_12:
  + 1 U10 - 1 U12 + 14 X_10_12
  <= 13
 mtz_10_13:
  + 1 U10 - 1 U13 + 14 X_10_13
  <= 13
 mtz_10_14:
  + 1 U10 - 1 U14 + 14 X_10_14
  <= 13
 mtz_11_1:
  + 1 U11 - 1 U1 + 14 X_11_1
  <= 13
 mtz_11_2:
  + 1 U11 - 1 U2 + 14 X_11_2
  <= 13
 mtz_11_3:
  + 1 U11 - 1 U3 + 14 X_11_3
  <= 13
 mtz_11_4:
  + 1 U11 - 1 U4 + 14 X_11_4
  <= 13
 mtz_11_5:
  + 1 U11 - 1 U5 + 14 X_11_5
  <= 13
 mtz_11_6:
  + 1 U11 - 1 U6 + 14 X_11_6
  <= 13
 mtz_11_7:
  + 1 U11 - 1 U7 + 14 X_11_7
  <= 13
 mtz_11_8:
  + 1 U11 - 1 U8 + 14 X_11_8
  <= 13
 mtz_11_9:
  + 1 U11 - 1 U9 + 14 X_11_9
  <= 13
 mtz_11_10:
  + 1 U11 - 1 U10 + 14 X_11_10
  <= 13
 mtz_11_12:
  + 1 U11 - 1 U12 + 14 X_11_12
  <= 13
 mtz_11_13:
  + 1 U11 - 1 U13 + 14 X_11_13
  <= 13
 mtz_11_14:
  + 1 U11 - 1 U14 + 14 X_11_14
  <= 13
 mtz_12_1:
  + 1 U12 - 1 U1 + 14 X_12_1
  <= 13
 mtz_12_2:
  + 1 U12 - 1 U2 + 14 X_12_2
  <= 13
 mtz_12_3:
  + 1 U12 - 1 U3 + 14 X_12_3
  <= 13
 mtz_12_4:
  + 1 U12 - 1 U4 + 14 X_12_4
  <= 13
 mtz_12_5:
  + 1 U12 - 1 U5 + 14 X_12_5
  <= 13
 mtz_12_6:
  + 1 U12 - 1 U6 + 14 X_12_6
  <= 13
 mtz_12_7:
  + 1 U12 - 1 U7 + 14 X_12_7
  <= 13
 mtz_12_8:
  + 1 U12 - 1 U8 + 14 X_12_8
  <= 13
 mtz_12_9:
  + 1 U12 - 1 U9 + 14 X_12_9
  <= 13
 mtz_12_10:
  + 1 U12 - 1 U10 + 14 X_12_10
  <= 13
 mtz_12_11:
  + 1 U12 - 1 U11 + 14 X_12_11
  <= 13
 mtz_12_13:
  + 1 U12 - 1 U13 + 14 X_12_13
  <= 13
 mtz_12_14:
  + 1 U12 - 1 U14 + 14 X_12_14
  <= 13
 mtz_13_1:
  + 1 U13 - 1 U1 + 14 X_13_1
  <= 13
 mtz_13_2:
  + 1 U13 - 1 U2 + 14 X_13_2
  <= 13
 mtz_13_3:
  + 1 U13 - 1 U3 + 14 X_13_3
  <= 13
 mtz_13_4:
  + 1 U13 - 1 U4 + 14 X_13_4
  <= 13
 mtz_13_5:
  + 1 U13 - 1 U5 + 14 X_13_5
  <= 13
 mtz_13_6:
  + 1 U13 - 1 U6 + 14 X_13_6
  <= 13
 mtz_13_7:
  + 1 U13 - 1 U7 + 14 X_13_7
  <= 13
 mtz_13_8:
  + 1 U13 - 1 U8 + 14 X_13_8
  <= 13
 mtz_13_9:
  + 1 U13 - 1 U9 + 14 X_13_9
  <= 13
 mtz_13_10:
  + 1 U13 - 1 U10 + 14 X_13_10
  <= 13
 mtz_13_11:
  + 1 U13 - 1 U11 + 14 X_13_11
  <= 13
 mtz_13_12:
  + 1 U13 - 1 U12 + 14 X_13_12
  <= 13
 mtz_13_14:
  + 1 U13 - 1 U14 + 14 X_13_14
  <= 13
 mtz_14_1:
  + 1 U14 - 1 U1 + 14 X_14_1
  <= 13
 mtz_14_2:
  + 1 U14 - 1 U2 + 14 X_14_2
  <= 13
 mtz_14_3:
  + 1 U14 - 1 U3 + 14 X_14_3
  <= 13
 mtz_14_4:
  + 1 U14 - 1 U4 + 14 X_14_4
  <= 13
 mtz_14_5:
  + 1 U14 - 1 U5 + 14 X_14_5
  <= 13
 mtz_14_6:
  + 1 U14 - 1 U6 + 14 X_14_6
  <= 13
 mtz_14_7:
  + 1 U14 - 1 U7 + 14 X_14_7
  <= 13
 mtz_14_8:
  + 1 U14 - 1 U8 + 14 X_14_8
  <= 13
 mtz_14_9:
  + 1 U14 - 1 U9 + 14 X_14_9
  <= 13
 mtz_14_10:
  + 1 U14 - 1 U10 + 14 X_14_10
  <= 13
 mtz_14_11:
  + 1 U14 - 1 U11 + 14 X_14_11
  <= 13
 mtz_14_12:
  + 1 U14 - 1 U12 + 14 X_14_12
  <= 13
 mtz_14_13:
  + 1 U14 - 1 U13 + 14 X_14_13
  <= 13
 obj1:
  + 734 X_0_1 + 477 X_0_2 + 676 X_0_3 + 305 X_0_4 + 285 X_0_5 + 646 X_0_6 + 473 X_0_7 + 459 X_0_8
  + 488 X_0_9 + 462 X_0_10 + 391 X_0_11 + 406 X_0_12 + 615 X_0_13 + 211 X_0_14 + 734 X_1_0 + 856 X_1_2
  + 348 X_1_3 + 1037 X_1_4 + 844 X_1_5 + 91 X_1_6 + 1061 X_1_7 + 720 X_1_8 + 1203 X_1_9 + 848 X_1_10
  + 1122 X_1_11 + 791 X_1_12 + 581 X_1_13 + 591 X_1_14 + 477 X_2_0 + 856 X_2_1 + 594 X_2_3 + 617 X_2_4
  + 760 X_2_5 + 770 X_2_6 + 280 X_2_7 + 918 X_2_8 + 567 X_2_9 + 14 X_2_10 + 577 X_2_11 + 79 X_2_12
  + 371 X_2_13 + 364 X_2_14 + 676 X_3_0 + 348 X_3_1 + 594 X_3_2 + 969 X_3_4 + 889 X_3_5 + 300 X_3_6
  + 847 X_3_7 + 869 X_3_8 + 1062 X_3_9 + 591 X_3_10 + 1013 X_3_11 + 549 X_3_12 + 253 X_3_13 + 472 X_3_14
  + 305 X_4_0 + 1037 X_4_1 + 617 X_4_2 + 969 X_4_3 + 332 X_4_5 + 950 X_4_6 + 454 X_4_7 + 598 X_4_8
  + 270 X_4_9 + 603 X_4_10 + 144 X_4_11 + 573 X_4_12 + 868 X_4_13 + 497 X_4_14 + 285 X_5_0 + 844 X_5_1
  + 760 X_5_2 + 889 X_5_3 + 332 X_5_4 + 769 X_5_6 + 706 X_5_7 + 268 X_5_8 + 599 X_5_9 + 745 X_5_10
  + 475 X_5_11 + 690 X_5_12 + 878 X_5_13 + 472 X_5_14 + 646 X_6_0 + 91 X_6_1 + 770 X_6_2 + 300 X_6_3
  + 950 X_6_4 + 769 X_6_5 + 971 X_6_7 + 667 X_6_8 + 1112 X_6_9 + 762 X_6_10 + 1032 X_6_11 + 704 X_6_12
  + 514 X_6_13 + 500 X_6_14 + 473 X_7_0 + 1061 X_7_1 + 280 X_7_2 + 847 X_7_3 + 454 X_7_4 + 706 X_7_5
  + 971 X_7_6 + 927 X_7_8 + 310 X_7_9 + 276 X_7_10 + 360 X_7_11 + 300 X_7_12 + 645 X_7_13 + 485 X_7_14
  + 459 X_8_0 + 720 X_8_1 + 918 X_8_2 + 869 X_8_3 + 598 X_8_4 + 268 X_8_5 + 667 X_8_6 + 927 X_8_7
  + 862 X_8_9 + 903 X_8_10 + 739 X_8_11 + 840 X_8_12 + 934 X_8_13 + 569 X_8_14 + 488 X_9_0 + 1203 X_9_1
  + 567 X_9_2 + 1062 X_9_3 + 270 X_9_4 + 599 X_9_5 + 1112 X_9_6 + 310 X_9_7 + 862 X_9_8 + 559 X_9_10
  + 125 X_9_11 + 558 X_9_12 + 902 X_9_13 + 617 X_9_14 + 462 X_10_0 + 848 X_10_1 + 14 X_10_2 + 591 X_10_3
  + 603 X_10_4 + 745 X_10_5 + 762 X_10_6 + 276 X_10_7 + 903 X_10_8 + 559 X_10_9 + 566 X_10_11 + 66 X_10_12
  + 372 X_10_13 + 351 X_10_14 + 391 X_11_0 + 1122 X_11_1 + 577 X_11_2 + 1013 X_11_3 + 144 X_11_4 + 475 X_11_5
  + 1032 X_11_6 + 360 X_11_7 + 739 X_11_8 + 125 X_11_9 + 566 X_11_10 + 550 X_11_12 + 877 X_11_13 + 549 X_11_14
  + 406 X_12_0 + 791 X_12_1 + 79 X_12_2 + 549 X_12_3 + 573 X_12_4 + 690 X_12_5 + 704 X_12_6 + 300 X_12_7
  + 840 X_12_8 + 558 X_12_9 + 66 X_12_10 + 550 X_12_11 + 348 X_12_13 + 284 X_12_14 + 615 X_13_0 + 581 X_13_1
  + 371 X_13_2 + 253 X_13_3 + 868 X_13_4 + 878 X_13_5 + 514 X_13_6 + 645 X_13_7 + 934 X_13_8 + 902 X_13_9
  + 372 X_13_10 + 877 X_13_11 + 348 X_13_12 + 408 X_13_14 + 211 X_14_0 + 591 X_14_1 + 364 X_14_2 + 472 X_14_3
  + 497 X_14_4 + 472 X_14_5 + 500 X_14_6 + 485 X_14_7 + 569 X_14_8 + 617 X_14_9 + 351 X_14_10 + 549 X_14_11
  + 284 X_14_12 + 408 X_14_13
  <= 1
 obj2:
  + 182 X_0_1 + 223 X_0_2 + 325 X_0_3 + 557 X_0_4 + 498 X_0_5 + 770 X_0_6 + 772 X_0_7 + 510 X_0_8
  + 581 X_0_9 + 617 X_0_10 + 178 X_0_11 + 524 X_0_12 + 289 X_0_13 + 507 X_0_14 + 182 X_1_0 + 45 X_1_2
  + 233 X_1_3 + 621 X_1_4 + 546 X_1_5 + 824 X_1_6 + 841 X_1_7 + 452 X_1_8 + 425 X_1_9 + 747 X_1_10
  + 240 X_1_11 + 357 X_1_12 + 107 X_1_13 + 461 X_1_14 + 223 X_2_0 + 45 X_2_1 + 207 X_2_3 + 659 X_2_4
  + 583 X_2_5 + 859 X_2_6 + 878 X_2_7 + 470 X_2_8 + 408 X_2_9 + 791 X_2_10 + 283 X_2_11 + 335 X_2_12
  + 76 X_2_13 + 439 X_2_14 + 325 X_3_0 + 233 X_3_1 + 207 X_3_2 + 847 X_3_4 + 776 X_3_5 + 1054 X_3_6
  + 1067 X_3_7 + 677 X_3_8 + 565 X_3_9 + 941 X_3_10 + 457 X_3_11 + 483 X_3_12 + 251 X_3_13 + 232 X_3_14
  + 557 X_4_0 + 621 X_4_1 + 659 X_4_2 + 847 X_4_3 + 83 X_4_5 + 213 X_4_6 + 219 X_4_7 + 369 X_4_8
  + 697 X_4_9 + 287 X_4_10 + 392 X_4_11 + 708 X_4_12 + 665 X_4_13 + 1058 X_4_14 + 498 X_5_0 + 546 X_5_1
  + 583 X_5_2 + 776 X_5_3 + 83 X_5_4 + 277 X_5_6 + 296 X_5_7 + 293 X_5_8 + 616 X_5_9 + 346 X_5_10
  + 326 X_5_11 + 625 X_5_12 + 585 X_5_13 + 991 X_5_14 + 770 X_6_0 + 824 X_6_1 + 859 X_6_2 + 1054 X_6_3
  + 213 X_6_4 + 277 X_6_5 + 72 X_6_7 + 492 X_6_8 + 829 X_6_9 + 377 X_6_10 + 602 X_6_11 + 857 X_6_12
  + 857 X_6_13 + 1269 X_6_14 + 772 X_7_0 + 841 X_7_1 + 878 X_7_2 + 1067 X_7_3 + 219 X_7_4 + 296 X_7_5
  + 72 X_7_6 + 541 X_7_8 + 878 X_7_9 + 322 X_7_10 + 611 X_7_11 + 901 X_7_12 + 882 X_7_13 + 1276 X_7_14
  + 510 X_8_0 + 452 X_8_1 + 470 X_8_2 + 677 X_8_3 + 369 X_8_4 + 293 X_8_5 + 492 X_8_6 + 541 X_8_7
  + 337 X_8_9 + 636 X_8_10 + 351 X_8_11 + 367 X_8_12 + 434 X_8_13 + 909 X_8_14 + 581 X_9_0 + 425 X_9_1
  + 408 X_9_2 + 565 X_9_3 + 697 X_9_4 + 616 X_9_5 + 829 X_9_6 + 878 X_9_7 + 337 X_9_8 + 939 X_9_10
  + 506 X_9_11 + 83 X_9_12 + 334 X_9_13 + 781 X_9_14 + 617 X_10_0 + 747 X_10_1 + 791 X_10_2 + 941 X_10_3
  + 287 X_10_4 + 346 X_10_5 + 377 X_10_6 + 322 X_10_7 + 636 X_10_8 + 939 X_10_9 + 510 X_10_11 + 933 X_10_12
  + 822 X_10_13 + 1116 X_10_14 + 178 X_11_0 + 240 X_11_1 + 283 X_11_2 + 457 X_11_3 + 392 X_11_4 + 326 X_11_5
  + 602 X_11_6 + 611 X_11_7 + 351 X_11_8 + 506 X_11_9 + 510 X_11_10 + 471 X_11_12 + 313 X_11_13 + 666 X_11_14
  + 524 X_12_0 + 357 X_12_1 + 335 X_12_2 + 483 X_12_3 + 708 X_12_4 + 625 X_12_5 + 857 X_12_6 + 901 X_12_7
  + 367 X_12_8 + 83 X_12_9 + 933 X_12_10 + 471 X_12_11 + 260 X_12_13 + 697 X_12_14 + 289 X_13_0 + 107 X_13_1
  + 76 X_13_2 + 251 X_13_3 + 665 X_13_4 + 585 X_13_5 + 857 X_13_6 + 882 X_13_7 + 434 X_13_8 + 334 X_13_9
  + 822 X_13_10 + 313 X_13_11 + 260 X_13_12 + 482 X_13_14 + 507 X_14_0 + 461 X_14_1 + 439 X_14_2 + 232 X_14_3
  + 1058 X_14_4 + 991 X_14_5 + 1269 X_14_6 + 1276 X_14_7 + 909 X_14_8 + 781 X_14_9 + 1116 X_14_10 + 666 X_14_11
  + 697 X_14_12 + 482 X_14_13
  <= 2
 obj3:
  + 201 X_0_1 + 667 X_0_2 + 123 X_0_3 + 360 X_0_4 + 390 X_0_5 + 545 X_0_6 + 334 X_0_7 + 466 X_0_8
  + 345 X_0_9 + 492 X_0_10 + 157 X_0_11 + 220 X_0_12 + 417 X_0_13 + 428 X_0_14 + 201 X_1_0 + 577 X_1_2
  + 324 X_1_3 + 511 X_1_4 + 525 X_1_5 + 344 X_1_6 + 470 X_1_7 + 269 X_1_8 + 438 X_1_9 + 677 X_1_10
  + 163 X_1_11 + 395 X_1_12 + 611 X_1_13 + 432 X_1_14 + 667 X_2_0 + 577 X_2_1 + 743 X_2_3 + 1027 X_2_4
  + 1057 X_2_5 + 578 X_2_6 + 1001 X_2_7 + 621 X_2_8 + 997 X_2_9 + 878 X_2_10 + 731 X_2_11 + 681 X_2_12
  + 882 X_2_13 + 315 X_2_14 + 123 X_3_0 + 324 X_3_1 + 743 X_3_2 + 301 X_3_4 + 342 X_3_5 + 668 X_3_6
  + 292 X_3_7 + 589 X_3_8 + 340 X_3_9 + 386 X_3_10 + 253 X_3_11 + 148 X_3_12 + 302 X_3_13 + 469 X_3_14
  + 360 X_4_0 + 511 X_4_1 + 1027 X_4_2 + 301 X_4_3 + 51 X_4_5 + 818 X_4_6 + 52 X_4_7 + 719 X_4_8
  + 154 X_4_9 + 550 X_4_10 + 357 X_4_11 + 428 X_4_12 + 445 X_4_13 + 768 X_4_14 + 390 X_5_0 + 525 X_5_1
  + 1057 X_5_2 + 342 X_5_3 + 51 X_5_4 + 819 X_5_6 + 55 X_5_7 + 719 X_5_8 + 127 X_5_9 + 601 X_5_10
  + 366 X_5_11 + 474 X_5_12 + 497 X_5_13 + 806 X_5_14 + 545 X_6_0 + 344 X_6_1 + 578 X_6_2 + 668 X_6_3
  + 818 X_6_4 + 819 X_6_5 + 770 X_6_7 + 103 X_6_8 + 707 X_6_9 + 1009 X_6_10 + 464 X_6_11 + 728 X_6_12
  + 951 X_6_13 + 620 X_6_14 + 334 X_7_0 + 470 X_7_1 + 1001 X_7_2 + 292 X_7_3 + 52 X_7_4 + 55 X_7_5
  + 770 X_7_6 + 671 X_7_8 + 104 X_7_9 + 576 X_7_10 + 313 X_7_11 + 429 X_7_12 + 472 X_7_13 + 753 X_7_14
  + 466 X_8_0 + 269 X_8_1 + 621 X_8_2 + 589 X_8_3 + 719 X_8_4 + 719 X_8_5 + 103 X_8_6 + 671 X_8_7
  + 605 X_8_9 + 945 X_8_10 + 370 X_8_11 + 663 X_8_12 + 880 X_8_13 + 610 X_8_14 + 345 X_9_0 + 438 X_9_1
  + 997 X_9_2 + 340 X_9_3 + 154 X_9_4 + 127 X_9_5 + 707 X_9_6 + 104 X_9_7 + 605 X_9_8 + 665 X_9_10
  + 275 X_9_11 + 487 X_9_12 + 563 X_9_13 + 774 X_9_14 + 492 X_10_0 + 677 X_10_1 + 878 X_10_2 + 386 X_10_3
  + 550 X_10_4 + 601 X_10_5 + 1009 X_10_6 + 576 X_10_7 + 945 X_10_8 + 665 X_10_9 + 638 X_10_11 + 282 X_10_12
  + 104 X_10_13 + 563 X_10_14 + 157 X_11_0 + 163 X_11_1 + 731 X_11_2 + 253 X_11_3 + 357 X_11_4 + 366 X_11_5
  + 464 X_11_6 + 313 X_11_7 + 370 X_11_8 + 275 X_11_9 + 638 X_11_10 + 376 X_11_12 + 555 X_11_13 + 543 X_11_14
  + 220 X_12_0 + 395 X_12_1 + 681 X_12_2 + 148 X_12_3 + 428 X_12_4 + 474 X_12_5 + 728 X_12_6 + 429 X_12_7
  + 663 X_12_8 + 487 X_12_9 + 282 X_12_10 + 376 X_12_11 + 229 X_12_13 + 378 X_12_14 + 417 X_13_0 + 611 X_13_1
  + 882 X_13_2 + 302 X_13_3 + 445 X_13_4 + 497 X_13_5 + 951 X_13_6 + 472 X_13_7 + 880 X_13_8 + 563 X_13_9
  + 104 X_13_10 + 555 X_13_11 + 229 X_13_12 + 568 X_13_14 + 428 X_14_0 + 432 X_14_1 + 315 X_14_2 + 469 X_14_3
  + 768 X_14_4 + 806 X_14_5 + 620 X_14_6 + 753 X_14_7 + 610 X_14_8 + 774 X_14_9 + 563 X_14_10 + 543 X_14_11
  + 378 X_14_12 + 568 X_14_13
  <= 3
 obj4:
  + 629 X_0_1 + 296 X_0_2 + 556 X_0_3 + 636 X_0_4 + 366 X_0_5 + 374 X_0_6 + 718 X_0_7 + 474 X_0_8
  + 354 X_0_9 + 663 X_0_10 + 499 X_0_11 + 206 X_0_12 + 790 X_0_13 + 792 X_0_14 + 629 X_1_0 + 583 X_1_2
  + 406 X_1_3 + 585 X_1_4 + 815 X_1_5 + 535 X_1_6 + 92 X_1_7 + 277 X_1_8 + 846 X_1_9 + 132 X_1_10
  + 419 X_1_11 + 802 X_1_12 + 254 X_1_13 + 165 X_1_14 + 296 X_2_0 + 583 X_2_1 + 325 X_2_3 + 833 X_2_4
  + 233 X_2_5 + 596 X_2_6 + 653 X_2_7 + 567 X_2_8 + 650 X_2_9 + 555 X_2_10 + 265 X_2_11 + 313 X_2_12
  + 648 X_2_13 + 744 X_2_14 + 556 X_3_0 + 406 X_3_1 + 325 X_3_2 + 878 X_3_4 + 536 X_3_5 + 709 X_3_6
  + 436 X_3_7 + 549 X_3_8 + 890 X_3_9 + 313 X_3_10 + 60 X_3_11 + 634 X_3_12 + 356 X_3_13 + 530 X_3_14
  + 636 X_4_0 + 585 X_4_1 + 833 X_4_2 + 878 X_4_3 + 991 X_4_5 + 263 X_4_6 + 652 X_4_7 + 333 X_4_8
  + 556 X_4_9 + 713 X_4_10 + 854 X_4_11 + 835 X_4_12 + 840 X_4_13 + 648 X_4_14 + 366 X_5_0 + 815 X_5_1
  + 233 X_5_2 + 536 X_5_3 + 991 X_5_4 + 734 X_5_6 + 886 X_5_7 + 767 X_5_8 + 671 X_5_9 + 788 X_5_10
  + 480 X_5_11 + 231 X_5_12 + 876 X_5_13 + 977 X_5_14 + 374 X_6_0 + 535 X_6_1 + 596 X_6_2 + 709 X_6_3
  + 263 X_6_4 + 734 X_6_5 + 622 X_6_7 + 263 X_6_8 + 352 X_6_9 + 636 X_6_10 + 672 X_6_11 + 571 X_6_12
  + 776 X_6_13 + 657 X_6_14 + 718 X_7_0 + 92 X_7_1 + 653 X_7_2 + 436 X_7_3 + 652 X_7_4 + 886 X_7_5
  + 622 X_7_6 + 361 X_7_8 + 938 X_7_9 + 125 X_7_10 + 461 X_7_11 + 887 X_7_12 + 198 X_7_13 + 94 X_7_14
  + 474 X_8_0 + 277 X_8_1 + 567 X_8_2 + 549 X_8_3 + 333 X_8_4 + 767 X_8_5 + 263 X_8_6 + 361 X_8_7
  + 599 X_8_9 + 392 X_8_10 + 531 X_8_11 + 676 X_8_12 + 528 X_8_13 + 393 X_8_14 + 354 X_9_0 + 846 X_9_1
  + 650 X_9_2 + 890 X_9_3 + 556 X_9_4 + 671 X_9_5 + 352 X_9_6 + 938 X_9_7 + 599 X_9_8 + 922 X_9_10
  + 837 X_9_11 + 444 X_9_12 + 1060 X_9_13 + 987 X_9_14 + 663 X_10_0 + 132 X_10_1 + 555 X_10_2 + 313 X_10_3
  + 713 X_10_4 + 788 X_10_5 + 636 X_10_6 + 125 X_10_7 + 392 X_10_8 + 922 X_10_9 + 342 X_10_11 + 813 X_10_12
  + 140 X_10_13 + 217 X_10_14 + 499 X_11_0 + 419 X_11_1 + 265 X_11_2 + 60 X_11_3 + 854 X_11_4 + 480 X_11_5
  + 672 X_11_6 + 461 X_11_7 + 531 X_11_8 + 837 X_11_9 + 342 X_11_10 + 574 X_11_12 + 402 X_11_13 + 556 X_11_14
  + 206 X_12_0 + 802 X_12_1 + 313 X_12_2 + 634 X_12_3 + 835 X_12_4 + 231 X_12_5 + 571 X_12_6 + 887 X_12_7
  + 676 X_12_8 + 444 X_12_9 + 813 X_12_10 + 574 X_12_11 + 927 X_12_13 + 968 X_12_14 + 790 X_13_0 + 254 X_13_1
  + 648 X_13_2 + 356 X_13_3 + 840 X_13_4 + 876 X_13_5 + 776 X_13_6 + 198 X_13_7 + 528 X_13_8 + 1060 X_13_9
  + 140 X_13_10 + 402 X_13_11 + 927 X_13_12 + 255 X_13_14 + 792 X_14_0 + 165 X_14_1 + 744 X_14_2 + 530 X_14_3
  + 648 X_14_4 + 977 X_14_5 + 657 X_14_6 + 94 X_14_7 + 393 X_14_8 + 987 X_14_9 + 217 X_14_10 + 556 X_14_11
  + 968 X_14_12 + 255 X_14_13
  <= 4
 obj5:
  + 66 X_0_1 + 266 X_0_2 + 436 X_0_3 + 741 X_0_4 + 545 X_0_5 + 305 X_0_6 + 463 X_0_7 + 544 X_0_8
  + 386 X_0_9 + 680 X_0_10 + 231 X_0_11 + 447 X_0_12 + 685 X_0_13 + 131 X_0_14 + 66 X_1_0 + 297 X_1_2
  + 447 X_1_3 + 719 X_1_4 + 532 X_1_5 + 296 X_1_6 + 443 X_1_7 + 481 X_1_8 + 322 X_1_9 + 647 X_1_10
  + 201 X_1_11 + 421 X_1_12 + 635 X_1_13 + 93 X_1_14 + 266 X_2_0 + 297 X_2_1 + 684 X_2_3 + 1007 X_2_4
  + 367 X_2_5 + 178 X_2_6 + 730 X_2_7 + 741 X_2_8 + 498 X_2_9 + 944 X_2_10 + 237 X_2_11 + 713 X_2_12
  + 928 X_2_13 + 389 X_2_14 + 436 X_3_0 + 447 X_3_1 + 684 X_3_2 + 401 X_3_4 + 978 X_3_5 + 739 X_3_6
  + 210 X_3_7 + 624 X_3_8 + 671 X_3_9 + 429 X_3_10 + 647 X_3_11 + 246 X_3_12 + 567 X_3_13 + 373 X_3_14
  + 741 X_4_0 + 719 X_4_1 + 1007 X_4_2 + 401 X_4_3 + 1225 X_4_5 + 1006 X_4_6 + 277 X_4_7 + 587 X_4_8
  + 791 X_4_9 + 151 X_4_10 + 891 X_4_11 + 299 X_4_12 + 361 X_4_13 + 626 X_4_14 + 545 X_5_0 + 532 X_5_1
  + 367 X_5_2 + 978 X_5_3 + 1225 X_5_4 + 240 X_5_6 + 959 X_5_7 + 785 X_5_8 + 493 X_5_9 + 1124 X_5_10
  + 337 X_5_11 + 928 X_5_12 + 1040 X_5_13 + 616 X_5_14 + 305 X_6_0 + 296 X_6_1 + 178 X_6_2 + 739 X_6_3
  + 1006 X_6_4 + 240 X_6_5 + 734 X_6_7 + 639 X_6_8 + 364 X_6_9 + 918 X_6_10 + 121 X_6_11 + 707 X_6_12
  + 863 X_6_13 + 385 X_6_14 + 463 X_7_0 + 443 X_7_1 + 730 X_7_2 + 210 X_7_3 + 277 X_7_4 + 959 X_7_5
  + 734 X_7_6 + 443 X_7_8 + 563 X_7_9 + 242 X_7_10 + 622 X_7_11 + 46 X_7_12 + 356 X_7_13 + 350 X_7_14
  + 544 X_8_0 + 481 X_8_1 + 741 X_8_2 + 624 X_8_3 + 587 X_8_4 + 785 X_8_5 + 639 X_8_6 + 443 X_8_7
  + 292 X_8_9 + 442 X_8_10 + 523 X_8_11 + 396 X_8_12 + 278 X_8_13 + 428 X_8_14 + 386 X_9_0 + 322 X_9_1
  + 498 X_9_2 + 671 X_9_3 + 791 X_9_4 + 493 X_9_5 + 364 X_9_6 + 563 X_9_7 + 292 X_9_8 + 668 X_9_10
  + 262 X_9_11 + 521 X_9_12 + 552 X_9_13 + 330 X_9_14 + 680 X_10_0 + 647 X_10_1 + 944 X_10_2 + 429 X_10_3
  + 151 X_10_4 + 1124 X_10_5 + 918 X_10_6 + 242 X_10_7 + 442 X_10_8 + 668 X_10_9 + 799 X_10_11 + 239 X_10_12
  + 211 X_10_13 + 555 X_10_14 + 231 X_11_0 + 201 X_11_1 + 237 X_11_2 + 647 X_11_3 + 891 X_11_4 + 337 X_11_5
  + 121 X_11_6 + 622 X_11_7 + 523 X_11_8 + 262 X_11_9 + 799 X_11_10 + 593 X_11_12 + 742 X_11_13 + 280 X_11_14
  + 447 X_12_0 + 421 X_12_1 + 713 X_12_2 + 246 X_12_3 + 299 X_12_4 + 928 X_12_5 + 707 X_12_6 + 46 X_12_7
  + 396 X_12_8 + 521 X_12_9 + 239 X_12_10 + 593 X_12_11 + 326 X_12_13 + 327 X_12_14 + 685 X_13_0 + 635 X_13_1
  + 928 X_13_2 + 567 X_13_3 + 361 X_13_4 + 1040 X_13_5 + 863 X_13_6 + 356 X_13_7 + 278 X_13_8 + 552 X_13_9
  + 211 X_13_10 + 742 X_13_11 + 326 X_13_12 + 553 X_13_14 + 131 X_14_0 + 93 X_14_1 + 389 X_14_2 + 373 X_14_3
  + 626 X_14_4 + 616 X_14_5 + 385 X_14_6 + 350 X_14_7 + 428 X_14_8 + 330 X_14_9 + 555 X_14_10 + 280 X_14_11
  + 327 X_14_12 + 553 X_14_13
  <= 5
Bounds
 1 <= U1 <= 14
 1 <= U2 <= 14
 1 <= U3 <= 14
 1 <= U4 <= 14
 1 <= U5 <= 14
 1 <= U6 <= 14
 1 <= U7 <= 14
 1 <= U8 <= 14
 1 <= U9 <= 14
 1 <= U10 <= 14
 1 <= U11 <= 14
 1 <= U12 <= 14
 1 <= U13 <= 14
 1 <= U14 <= 14
Binary
 X_0_1
 X_0_2
 X_0_3
 X_0_4
 X_0_5
 X_0_6
 X_0_7
 X_0_8
 X_0_9
 X_0_10
 X_0_11
 X_0_12
 X_0_13
 X_0_14
 X_1_0
 X_1_2
 X_1_3
 X_1_4
 X_1_5
 X_1_6
 X_1_7
 X_1_8
 X_1_9
 X_1_10
 X_1_11
 X_1_12
 X_1_13
 X_1_14
 X_2_0
 X_2_1
 X_2_3
 X_2_4
 X_2_5
 X_2_6
 X_2_7
 X_2_8
 X_2_9
 X_2_10
 X_2_11
 X_2_12
 X_2_13
 X_2_14
 X_3_0
 X_3_1
 X_3_2
 X_3_4
 X_3_5
 X_3_6
 X_3_7
 X_3_8
 X_3_9
 X_3_10
 X_3_11
 X_3_12
 X_3_13
 X_3_14
 X_4_0
 X_4_1
 X_4_2
 X_4_3
 X_4_5
 X_4_6
 X_4_7
 X_4_8
 X_4_9
 X_4_10
 X_4_11
 X_4_12
 X_4_13
 X_4_14
 X_5_0
 X_5_1
 X_5_2
 X_5_3
 X_5_4
 X_5_6
 X_5_7
 X_5_8
 X_5_9
 X_5_10
 X_5_11
 X_5_12
 X_5_13
 X_5_14
 X_6_0
 X_6_1
 X_6_2
 X_6_3
 X_6_4
 X_6_5
 X_6_7
 X_6_8
 X_6_9
 X_6_10
 X_6_11
 X_6_12
 X_6_13
 X_6_14
 X_7_0
 X_7_1
 X_7_2
 X_7_3
 X_7_4
 X_7_5
 X_7_6
 X_7_8
 X_7_9
 X_7_10
 X_7_11
 X_7_12
 X_7_13
 X_7_14
 X_8_0
 X_8_1
 X_8_2
 X_8_3
 X_8_4
 X_8_5
 X_8_6
 X_8_7
 X_8_9
 X_8_10
 X_8_11
 X_8_12
 X_8_13
 X_8_14
 X_9_0
 X_9_1
 X_9_2
 X_9_3
 X_9_4
 X_9_5
 X_9_6
 X_9_7
 X_9_8
 X_9_10
 X_9_11
 X_9_12
 X_9_13
 X_9_14
 X_10_0
 X_10_1
 X_10_2
 X_10_3
 X_10_4
 X_10_5
 X_10_6
 X_10_7
 X_10_8
 X_10_9
 X_10_11
 X_10_12
 X_10_13
 X_10_14
 X_11_0
 X_11_1
 X_11_2
 X_11_3
 X_11_4
 X_11_5
 X_11_6
 X_11_7
 X_11_8
 X_11_9
 X_11_10
 X_11_12
 X_11_13
 X_11_14
 X_12_0
 X_12_1
 X_12_2
 X_12_3
 X_12_4
 X_12_5
 X_12_6
 X_12_7
 X_12_8
 X_12_9
 X_12_10
 X_12_11
 X_12_13
 X_12_14
 X_13_0
 X_13_1
 X_13_2
 X_13_3
 X_13_4
 X_13_5
 X_13_6
 X_13_7
 X_13_8
 X_13_9
 X_13_10
 X_13_11
 X_13_12
 X_13_14
 X_14_0
 X_14_1
 X_14_2
 X_14_3
 X_14_4
 X_14_5
 X_14_6
 X_14_7
 X_14_8
 X_14_9
 X_14_10
 X_14_11
 X_14_12
 X_14_13
End
